#************************************************************************************
#*                   Generated by cif2cell 2.1.0 2026-04-09 13:49                   *
#*  T. Bjorkman, Comp. Phys. Commun. 182, 1183-1186 (2011). Please cite generously. *
#*                                                                                  *
#*                              Data obtained from COD                              *
#*                                    None   ()                                     *
#*             Failed to get author information, No journal information             *
#************************************************************************************

%BLOCK LATTICE_CART
ang    # angstrom units
   5.207830000000000   0.000000000000000   0.000000000000000
   0.000000000000000   5.207830000000000   0.000000000000000
   0.000000000000000   0.000000000000000  19.137060000000002
%ENDBLOCK LATTICE_CART

%BLOCK POSITIONS_FRAC
Mn   0.742540000000000   0.250000000000000   0.400750000000000 
Mn   0.742540000000000   0.250000000000000   0.599250000000000 
Mn   0.742540000000000   0.750000000000000   0.900750000000000 
Mn   0.242540000000000   0.750000000000000   0.400750000000000 
Mn   0.742540000000000   0.750000000000000   0.099250000000000 
Mn   0.242540000000000   0.250000000000000   0.099250000000000 
Mn   0.242540000000000   0.250000000000000   0.900750000000000 
Mn   0.242540000000000   0.750000000000000   0.599250000000000 
Ca   0.748780000000000   0.250000000000000   0.000000000000000 
Ca   0.748780000000000   0.750000000000000   0.500000000000000 
Ca   0.248780000000000   0.750000000000000   0.000000000000000 
Ca   0.248780000000000   0.250000000000000   0.500000000000000 
Ca   0.737590000000000   0.750000000000000   0.315540000000000 
Ca   0.737590000000000   0.750000000000000   0.684460000000000 
Ca   0.737590000000000   0.250000000000000   0.815540000000000 
Ca   0.237590000000000   0.250000000000000   0.315540000000000 
Ca   0.737590000000000   0.250000000000000   0.184460000000000 
Ca   0.237590000000000   0.750000000000000   0.184460000000000 
Ca   0.237590000000000   0.750000000000000   0.815540000000000 
Ca   0.237590000000000   0.250000000000000   0.684460000000000 
O    0.740960000000000   0.750000000000000   0.000000000000000 
O    0.740960000000000   0.250000000000000   0.500000000000000 
O    0.240960000000000   0.250000000000000   0.000000000000000 
O    0.240960000000000   0.750000000000000   0.500000000000000 
O    0.743530000000000   0.750000000000000   0.197620000000000 
O    0.743530000000000   0.750000000000000   0.802380000000000 
O    0.743530000000000   0.250000000000000   0.697620000000000 
O    0.243530000000000   0.250000000000000   0.197620000000000 
O    0.743530000000000   0.250000000000000   0.302380000000000 
O    0.243530000000000   0.750000000000000   0.302380000000000 
O    0.243530000000000   0.750000000000000   0.697620000000000 
O    0.243530000000000   0.250000000000000   0.802380000000000 
O    0.992820000000000   0.500110000000000   0.097930000000000 
O    0.992820000000000   0.500110000000000   0.902070000000000 
O    0.992820000000000   0.000110000000000   0.597930000000000 
O    0.492820000000000   0.499890000000000   0.097930000000000 
O    0.992820000000000   0.000110000000000   0.402070000000000 
O    0.492820000000000  -0.000110000000000   0.402070000000000 
O    0.492820000000000  -0.000110000000000   0.597930000000000 
O    0.492820000000000   0.499890000000000   0.902070000000000 
O    0.492820000000000   0.000110000000000   0.097930000000000 
O    0.492820000000000   0.000110000000000   0.902070000000000 
O    0.492820000000000   0.500110000000000   0.597930000000000 
O    0.992820000000000  -0.000110000000000   0.097930000000000 
O    0.492820000000000   0.500110000000000   0.402070000000000 
O    0.992820000000000   0.499890000000000   0.402070000000000 
O    0.992820000000000   0.499890000000000   0.597930000000000 
O    0.992820000000000  -0.000110000000000   0.902070000000000 
%ENDBLOCK POSITIONS_FRAC

# Commented out pseudopotential block for easy editing
#%BLOCK SPECIES_POT
# Mn  Mn_00.usp
# Ca  Ca_00.usp
# O   O_00.usp
#%ENDBLOCK SPECIES_POT

%BLOCK SYMMETRY_OPS
# Symm. op. 1
  1.000000000000000   0.000000000000000   0.000000000000000 
  0.000000000000000   1.000000000000000   0.000000000000000 
  0.000000000000000   0.000000000000000   1.000000000000000 
  0.000000000000000   0.000000000000000   0.000000000000000 
# Symm. op. 2
  1.000000000000000   0.000000000000000   0.000000000000000 
  0.000000000000000   1.000000000000000   0.000000000000000 
  0.000000000000000   0.000000000000000  -1.000000000000000 
  0.000000000000000   0.000000000000000   0.000000000000000 
# Symm. op. 3
  1.000000000000000   0.000000000000000   0.000000000000000 
  0.000000000000000  -1.000000000000000   0.000000000000000 
  0.000000000000000   0.000000000000000   1.000000000000000 
  0.500000000000000   0.000000000000000   0.000000000000000 
# Symm. op. 4
  1.000000000000000   0.000000000000000   0.000000000000000 
  0.000000000000000  -1.000000000000000   0.000000000000000 
  0.000000000000000   0.000000000000000  -1.000000000000000 
  0.500000000000000   0.000000000000000   0.000000000000000 
# Symm. op. 5
  1.000000000000000   0.000000000000000   0.000000000000000 
  0.000000000000000   1.000000000000000   0.000000000000000 
  0.000000000000000   0.000000000000000   1.000000000000000 
  0.000000000000000   0.500000000000000   0.500000000000000 
# Symm. op. 6
  1.000000000000000   0.000000000000000   0.000000000000000 
  0.000000000000000   1.000000000000000   0.000000000000000 
  0.000000000000000   0.000000000000000  -1.000000000000000 
  0.000000000000000   0.500000000000000   0.500000000000000 
# Symm. op. 7
  1.000000000000000   0.000000000000000   0.000000000000000 
  0.000000000000000  -1.000000000000000   0.000000000000000 
  0.000000000000000   0.000000000000000  -1.000000000000000 
  0.500000000000000   0.500000000000000   0.500000000000000 
# Symm. op. 8
  1.000000000000000   0.000000000000000   0.000000000000000 
  0.000000000000000  -1.000000000000000   0.000000000000000 
  0.000000000000000   0.000000000000000   1.000000000000000 
  0.500000000000000   0.500000000000000   0.500000000000000 
%ENDBLOCK SYMMETRY_OPS
